NAME : PR151B.94937.tour
COMMENT : Cost = 0_94937
COMMENT : Found by LKH [Keld Helsgaun] Sun Sep 17 16:52:43 2017
TYPE : TOUR
DIMENSION : 151
TOUR_SECTION
1
36
34
37
32
33
3
14
4
26
25
24
12
39
23
22
11
20
21
19
61
63
64
59
58
42
88
102
101
89
100
113
114
98
97
91
92
95
94
93
77
73
51
47
48
49
50
76
74
75
78
116
115
96
79
72
71
70
69
54
80
44
55
56
68
67
66
65
57
43
82
87
105
106
107
86
84
85
108
109
110
117
139
138
140
141
137
142
136
118
119
133
135
134
143
144
145
131
146
147
148
129
122
128
127
150
149
151
126
124
125
123
130
132
121
120
99
90
53
52
46
45
81
103
112
111
104
83
62
60
41
40
18
17
9
8
10
7
6
5
13
27
28
38
29
30
31
15
2
16
35
-1
EOF
